CMD:
./solvers/bin/cadical --plain --no-reduce -t 1600 ./data/cnfs//arbitrated_top_n5_w128_d8_e0/arbitrated_top_n5_w128_d8_e0.40.cnf

c --- [ banner ] -------------------------------------------------------------
c 
c CaDiCaL SAT Solver
c Copyright (c) 2016-2024
c A. Biere, M. Fleury, N. Froleyks, K. Fazekas, F. Pollitt, T. Faller
c JKU Linz, University of Freiburg, TU Wien
c 
c Version 2.1.3 5296d3d2a9bf48c154ab2acb5e44625776d821bf
c g++ (Gentoo 12.3.1_p20230526 p2) 12.3.1 20230526 -Wall -Wextra -O3 -DNDEBUG
c Sat Aug 9 07:26:21 PDT 2025 Linux cedar2.int.cedar.computecanada.ca 5.14.0-362.24.2.el9_3.x86_64 x86_64
c 
c --- [ limit ] --------------------------------------------------------------
c 
c setting time limit to 1600 seconds real time (due to '-t 1600')
c 
c --- [ parsing input ] ------------------------------------------------------
c 
c reading DIMACS file from './data/cnfs//arbitrated_top_n5_w128_d8_e0/arbitrated_top_n5_w128_d8_e0.40.cnf'
c opening file to read './data/cnfs//arbitrated_top_n5_w128_d8_e0/arbitrated_top_n5_w128_d8_e0.40.cnf'
c found 'p cnf 1206329 3520671' header
c parsed 3520671 clauses in 0.55 seconds process time
c 
c --- [ options ] ------------------------------------------------------------
c 
c   --compact=false                (different from default 'true')
c   --decompose=false              (different from default 'true')
c   --deduplicate=false            (different from default 'true')
c   --elim=false                   (different from default 'true')
c   --probe=false                  (different from default 'true')
c   --reduce=false                 (different from default 'true')
c   --subsume=false                (different from default 'true')
c   --ternary=false                (different from default 'true')
c   --transred=false               (different from default 'true')
c   --vivify=false                 (different from default 'true')
c 
c --- [ solving ] ------------------------------------------------------------
c 
c time measured in process time since initialization
c 
c  seconds   reductions  redundant   irredundant
c          MB    restarts       trail        variables
c           level   conflicts       glue           remaining
c 
c *  0.55 471  0 0   0    0    0  0% 0 2632662 565911 47%
c l  0.62 480  0 0   0    0    0  0% 0 2632662 565911 47%
c 1  0.62 480  0 0   0    0    0  0% 0 2632662 565911 47%
c 
c --- [ result ] -------------------------------------------------------------
c 
s SATISFIABLE
v 1 2 3 4 5 6 7 8 9 10 11 12 13 14 15 16 17 18 19 20 21 22 23 24 25 26 27 28
v 29 30 31 32 33 34 35 36 37 38 39 40 41 42 43 44 45 46 47 48 49 50 51 52 53
v 54 55 56 57 58 59 60 61 62 63 64 65 66 67 68 69 70 71 72 73 74 75 76 77 78
v 79 80 81 82 83 84 85 86 87 88 89 90 91 92 93 94 95 96 97 98 99 100 101 102
v 103 104 105 106 107 108 109 110 111 112 113 114 115 116 117 118 119 120 121
v 122 123 124 125 126 127 128 129 130 131 132 133 134 135 136 137 138 139 140
v 141 142 143 144 145 146 147 148 149 150 151 152 153 154 155 156 157 158 159
v 160 161 162 163 164 165 166 167 168 169 170 171 172 173 174 175 176 177 178
v 179 180 181 182 183 184 185 186 187 188 189 190 191 192 193 194 195 196 197
v 198 199 200 201 202 203 204 205 206 207 208 209 210 211 212 213 214 215 216
v 217 218 219 220 221 222 223 224 225 226 227 228 229 230 231 232 233 234 235
v 236 237 238 239 240 241 242 243 244 245 246 247 248 249 250 251 252 253 254
v 255 256 257 258 259 260 261 262 263 264 265 266 267 268 269 270 271 272 273
v 274 275 276 277 278 279 280 281 282 283 284 285 286 287 288 289 290 291 292
v 293 294 295 296 297 298 299 300 301 302 303 304 305 306 307 308 309 310 311
v 312 313 314 315 316 317 318 319 320 321 322 323 324 325 326 327 328 329 330
v 331 332 333 334 335 336 337 338 339 340 341 342 343 344 345 346 347 348 349
v 350 351 352 353 354 355 356 357 358 359 360 361 362 363 364 365 366 367 368
v 369 370 371 372 373 374 375 376 377 378 379 380 381 382 383 384 385 386 387
v 388 389 390 391 392 393 394 395 396 397 398 399 400 401 402 403 404 405 406
v 407 408 409 410 411 412 413 414 415 416 417 418 419 420 421 422 423 424 425
v 426 427 428 429 430 431 432 433 434 435 436 437 438 439 440 441 442 443 444
v 445 446 447 448 449 450 451 452 453 454 455 456 457 458 459 460 461 462 463
v 464 465 466 467 468 469 470 471 472 473 474 475 476 477 478 479 480 481 482
v 483 484 485 486 487 488 489 490 491 492 493 494 495 496 497 498 499 500 501
v 502 503 504 505 506 507 508 509 510 511 512 513 514 515 516 517 518 519 520
v 521 522 523 524 525 526 527 528 529 530 531 532 533 534 535 536 537 538 539
v 540 541 542 543 544 545 546 547 548 549 550 551 552 553 554 555 556 557 558
v 559 560 561 562 563 564 565 566 567 568 569 570 571 572 573 574 575 576 577
v 578 579 580 581 582 583 584 585 586 587 588 589 590 591 592 593 594 595 596
v 597 598 599 600 601 602 603 604 605 606 607 608 609 610 611 612 613 614 615
v 616 617 618 619 620 621 622 623 624 625 626 627 628 629 630 631 632 633 634
v 635 636 637 638 639 640 641 642 643 644 645 646 647 648 649 650 651 652 653
v 654 655 656 657 658 659 660 661 662 663 664 665 666 667 668 669 670 671 672
v 673 674 675 676 677 678 679 680 681 682 683 684 685 686 687 688 689 690 691
v 692 693 694 695 696 697 698 699 700 701 702 703 704 705 706 707 708 709 710
v 711 712 713 714 715 716 717 718 719 720 721 722 723 724 725 726 727 728 729
v 730 731 732 733 734 735 736 737 738 739 740 741 742 743 744 745 746 747 748
v 749 750 751 752 753 754 755 756 757 758 759 760 761 762 763 764 765 766 767
v 768 769 770 771 772 773 774 775 776 777 778 779 780 781 782 783 784 785 786
v 787 788 789 790 791 792 793 794 795 796 797 798 799 800 801 802 803 804 805
v 806 807 808 809 810 811 812 813 814 815 816 817 818 819 820 821 822 823 824
v 825 826 827 828 829 830 831 832 833 834 835 836 837 838 839 840 841 842 843
v 844 845 846 847 848 849 850 851 852 853 854 855 856 857 858 859 860 861 862
v 863 864 865 866 867 868 869 870 871 872 873 874 875 876 877 878 879 880 881
v 882 883 884 885 886 887 888 889 890 891 892 893 894 895 896 897 898 899 900
v 901 902 903 904 905 906 907 908 909 910 911 912 913 914 915 916 917 918 919
... skipped 128212 lines ...
v -1205818 -1205819 -1205820 -1205821 -1205822 -1205823 -1205824 -1205825
v -1205826 -1205827 -1205828 -1205829 -1205830 -1205831 -1205832 -1205833
v -1205834 -1205835 -1205836 -1205837 -1205838 -1205839 -1205840 -1205841
v -1205842 -1205843 -1205844 -1205845 -1205846 -1205847 -1205848 -1205849
v -1205850 -1205851 -1205852 -1205853 -1205854 -1205855 -1205856 -1205857
v -1205858 -1205859 -1205860 -1205861 -1205862 -1205863 -1205864 -1205865
v -1205866 -1205867 -1205868 -1205869 -1205870 -1205871 -1205872 -1205873
v -1205874 -1205875 -1205876 -1205877 -1205878 -1205879 -1205880 -1205881
v -1205882 -1205883 -1205884 -1205885 -1205886 -1205887 -1205888 -1205889
v -1205890 -1205891 -1205892 -1205893 -1205894 -1205895 -1205896 -1205897
v -1205898 -1205899 -1205900 -1205901 -1205902 -1205903 -1205904 -1205905
v -1205906 -1205907 -1205908 -1205909 -1205910 -1205911 -1205912 -1205913
v -1205914 -1205915 -1205916 -1205917 -1205918 -1205919 -1205920 -1205921
v -1205922 -1205923 -1205924 -1205925 -1205926 -1205927 -1205928 -1205929
v -1205930 -1205931 -1205932 -1205933 -1205934 -1205935 -1205936 -1205937
v -1205938 -1205939 -1205940 -1205941 -1205942 -1205943 -1205944 -1205945
v -1205946 -1205947 -1205948 -1205949 -1205950 -1205951 -1205952 -1205953
v -1205954 -1205955 -1205956 -1205957 -1205958 -1205959 -1205960 -1205961
v -1205962 -1205963 -1205964 -1205965 -1205966 -1205967 -1205968 -1205969
v -1205970 -1205971 -1205972 -1205973 -1205974 -1205975 -1205976 -1205977
v -1205978 -1205979 -1205980 -1205981 -1205982 -1205983 -1205984 -1205985
v -1205986 -1205987 -1205988 -1205989 -1205990 -1205991 -1205992 -1205993
v -1205994 -1205995 -1205996 -1205997 -1205998 -1205999 -1206000 -1206001
v -1206002 -1206003 -1206004 -1206005 -1206006 -1206007 -1206008 -1206009
v -1206010 -1206011 -1206012 -1206013 -1206014 -1206015 -1206016 -1206017
v -1206018 -1206019 -1206020 -1206021 -1206022 -1206023 -1206024 -1206025
v -1206026 -1206027 -1206028 -1206029 -1206030 -1206031 -1206032 -1206033
v -1206034 -1206035 -1206036 -1206037 -1206038 -1206039 -1206040 -1206041
v -1206042 -1206043 -1206044 -1206045 -1206046 -1206047 -1206048 -1206049
v -1206050 -1206051 -1206052 -1206053 -1206054 -1206055 -1206056 -1206057
v -1206058 -1206059 -1206060 -1206061 -1206062 -1206063 1206064 -1206065
v 1206066 -1206067 -1206068 -1206069 -1206070 -1206071 -1206072 -1206073
v -1206074 -1206075 -1206076 -1206077 -1206078 -1206079 -1206080 -1206081
v -1206082 -1206083 -1206084 -1206085 -1206086 -1206087 -1206088 -1206089
v -1206090 -1206091 -1206092 -1206093 -1206094 -1206095 -1206096 -1206097
v -1206098 -1206099 -1206100 -1206101 -1206102 -1206103 -1206104 -1206105
v -1206106 -1206107 -1206108 -1206109 -1206110 -1206111 -1206112 -1206113
v -1206114 -1206115 -1206116 -1206117 -1206118 -1206119 -1206120 -1206121
v -1206122 -1206123 -1206124 -1206125 -1206126 -1206127 -1206128 -1206129
v -1206130 -1206131 -1206132 -1206133 -1206134 -1206135 -1206136 -1206137
v -1206138 -1206139 -1206140 -1206141 -1206142 -1206143 -1206144 -1206145
v -1206146 -1206147 -1206148 -1206149 -1206150 -1206151 -1206152 -1206153
v -1206154 -1206155 -1206156 -1206157 -1206158 -1206159 -1206160 -1206161
v -1206162 -1206163 -1206164 -1206165 -1206166 -1206167 -1206168 -1206169
v -1206170 -1206171 -1206172 -1206173 -1206174 -1206175 -1206176 -1206177
v -1206178 -1206179 -1206180 -1206181 -1206182 -1206183 -1206184 -1206185
v -1206186 -1206187 -1206188 -1206189 -1206190 -1206191 -1206192 -1206193
v -1206194 -1206195 -1206196 -1206197 -1206198 -1206199 -1206200 -1206201
v -1206202 -1206203 -1206204 -1206205 -1206206 -1206207 -1206208 -1206209
v -1206210 -1206211 -1206212 -1206213 -1206214 -1206215 -1206216 -1206217
v -1206218 -1206219 -1206220 -1206221 -1206222 -1206223 -1206224 -1206225
v -1206226 -1206227 -1206228 -1206229 -1206230 -1206231 -1206232 -1206233
v -1206234 -1206235 -1206236 -1206237 -1206238 -1206239 -1206240 -1206241
v -1206242 -1206243 -1206244 -1206245 -1206246 -1206247 -1206248 -1206249
v -1206250 -1206251 -1206252 -1206253 -1206254 -1206255 -1206256 -1206257
v -1206258 -1206259 -1206260 -1206261 -1206262 -1206263 -1206264 -1206265
v -1206266 -1206267 -1206268 -1206269 -1206270 -1206271 -1206272 -1206273
v -1206274 -1206275 -1206276 -1206277 -1206278 -1206279 -1206280 -1206281
v -1206282 -1206283 -1206284 -1206285 -1206286 -1206287 -1206288 -1206289
v -1206290 -1206291 -1206292 -1206293 -1206294 -1206295 -1206296 -1206297
v -1206298 -1206299 -1206300 -1206301 -1206302 -1206303 -1206304 -1206305
v -1206306 -1206307 -1206308 -1206309 -1206310 -1206311 -1206312 -1206313
v -1206314 -1206315 -1206316 -1206317 -1206318 -1206319 -1206320 -1206321
v -1206322 -1206323 -1206324 1206325 -1206326 -1206327 1206328 -1206329 0
c 
c --- [ run-time profiling ] -------------------------------------------------
c 
c process time taken by individual solving procedures
c (percentage relative to process time for solving)
c 
c         0.55  739.51% parse
c         0.07   99.83% lucky
c         0.07   99.83% search
c         0.00    0.00% simplify
c   =================================
c         0.07   10.95% solve
c 
c last line shows process time for solving
c (percentage relative to total process time)
c 
c --- [ statistics ] ---------------------------------------------------------
c 
c fixed:                    639782        53.04 %  of all variables
c lucky:                         1       100.00 %  of tried
c minimized:                     0         0.00 %  learned literals
c shrunken:                      0         0.00 %  learned literals
c minishrunken:                  0         0.00 %  learned literals
c propagations:             639782         8.67 M  per second
c 
c seconds are measured in process time for solving
c 
c --- [ resources ] ----------------------------------------------------------
c 
c total process time since initialization:         0.67    seconds
c total real time since initialization:            0.69    seconds
c maximum resident set size of process:          479.29    MB
c 
c --- [ shutting down ] ------------------------------------------------------
c 
c exit 10
